236 300 78 91 77 92 71 80 78 58 51 54 96 74 94 64 59 67 93 63 92 72 59 54 86 95 63 85 50 69 73 61 76 75 51 77 66 97 56 68 79 82 73 74 55 91 62 89 82 80 76 73 51 85 77 61 79 91 97 80 84 94 91 84 94 66 60 59 62 92 78 91 73 75 89 53 65 51 92 71 81 68 94 56 77 95 68 56 59 89 60 68 82 75 51 75 91 62 59 77 53 61 92 50 86 54 78 75 80 70 96 85 62 63 92 63 82 59 69 66 98 53 84 53 78 85 53 93 71 62 69 74 73 85 100 83 90 77 57 69 71 77 54 57 64 96 71 96 79 64 61 76 68 69 53 70 54 56 63 100 68 56 74 65 92 98 98 81 99 54 74 70 55 52 77 69 98 72 90 50 87 75 50 54 95 54 74 73 60 61 72 53 68 70 68 59 67 91 64 66 69 88 60 75 91 61 68 62 84 57 88 70 83 88 74 51 92 72 74 77 84 70 54 51 91 72 85 82 87 73 72 56 85 82 81 100 68 73 